
Log started (V12.10.0.0) Fri Apr 23 12:44:09 2021


Problem 'asset.lp' read.
Read time = 0.01 sec. (0.79 ticks)
New value for default parallel thread count: 1
New value for time limit in seconds: 150
Version identifier: 12.10.0.0 | 2019-11-26 | 843d4de
CPXPARAM_Threads                                 1
CPXPARAM_TimeLimit                               150
Found incumbent of value 0.000000 after 0.00 sec. (0.19 ticks)
Tried aggregator 3 times.
MIP Presolve eliminated 3553 rows and 255 columns.
MIP Presolve modified 4911 coefficients.
Aggregator did 2073 substitutions.
Reduced MIP has 2446 rows, 3093 columns, and 13575 nonzeros.
Reduced MIP has 2645 binaries, 380 generals, 0 SOSs, and 0 indicators.
Presolve time = 0.03 sec. (30.33 ticks)
Probing fixed 61 vars, tightened 7 bounds.
Probing time = 0.03 sec. (16.07 ticks)
Cover probing fixed 0 vars, tightened 6 bounds.
Tried aggregator 1 time.
Detecting symmetries...
MIP Presolve eliminated 113 rows and 86 columns.
MIP Presolve modified 308 coefficients.
Reduced MIP has 2333 rows, 3007 columns, and 12699 nonzeros.
Reduced MIP has 2566 binaries, 373 generals, 0 SOSs, and 0 indicators.
Presolve time = 0.01 sec. (11.68 ticks)
Probing time = 0.00 sec. (3.12 ticks)
Clique table members: 8509.
MIP emphasis: balance optimality and feasibility.
MIP search method: dynamic search.
Parallel mode: none, using 1 thread.
Root relaxation solution time = 0.06 sec. (85.28 ticks)

        Nodes                                         Cuts/
   Node  Left     Objective  IInf  Best Integer    Best Bound    ItCnt     Gap

*     0+    0                            0.0000      980.0000              --- 
      0     0      948.6084   428        0.0000      948.6084     1192     --- 
      0     0      924.3882   428        0.0000     Cuts: 683     3904     --- 
      0     0      911.4001   428        0.0000     Cuts: 683     6252     --- 
      0     0      902.0507   428        0.0000     Cuts: 683     8456     --- 
*     0+    0                           35.0000      902.0507              --- 
      0     0        cutoff             35.0000      902.0507     8456     --- 
      0     0      897.8525   428       35.0000     Cuts: 607     9381     --- 
      0     0      895.5187   428       35.0000     Cuts: 664    10358     --- 
Detecting symmetries...
      0     0      894.4156   428       35.0000     Cuts: 450    11210     --- 
      0     0      893.6261   428       35.0000     Cuts: 376    11690     --- 
      0     0      891.8314   428       35.0000     Cuts: 325    12071     --- 
      0     0      891.4637   428       35.0000     Cuts: 322    12542     --- 
      0     0      891.1214   428       35.0000     Cuts: 397    12874     --- 
      0     0      890.8783   428       35.0000     Cuts: 340    13335     --- 
      0     0      889.9900   428       35.0000     Cuts: 444    14242     --- 
      0     0      888.5525   428       35.0000     Cuts: 656    15229     --- 
      0     0      888.3365   428       35.0000     Cuts: 349    16012     --- 
      0     0      887.2057   428       35.0000     Cuts: 385    16729     --- 
      0     0      886.6046   428       35.0000     Cuts: 314    17322     --- 
      0     0      886.0763   428       35.0000     Cuts: 471    18049     --- 
      0     0      885.7235   428       35.0000     Cuts: 382    18813     --- 
      0     0      885.2107   428       35.0000     Cuts: 478    19600     --- 
      0     0      884.6783   428       35.0000     Cuts: 475    20613     --- 
      0     0      884.0275   428       35.0000     Cuts: 592    21422     --- 
*     0+    0                           65.0000      884.0275              --- 
      0     0      882.8517   428       65.0000     Cuts: 683    22330     --- 
      0     0      881.8434   428       65.0000     Cuts: 519    23656     --- 
      0     0      881.1448   428       65.0000     Cuts: 315    24428     --- 
      0     0      880.4129   428       65.0000     Cuts: 331    24895     --- 
      0     0      880.1364   428       65.0000     Cuts: 383    25582     --- 
      0     0      878.8874   428       65.0000     Cuts: 374    26331     --- 
      0     0      877.9009   428       65.0000     Cuts: 324    26854     --- 
      0     0      877.2782   428       65.0000     Cuts: 469    27677     --- 
      0     0      876.8012   428       65.0000     Cuts: 354    28087     --- 
      0     0      876.3145   428       65.0000     Cuts: 402    28464     --- 
      0     0      875.8117   428       65.0000     Cuts: 392    28769     --- 
      0     0      875.4762   428       65.0000     Cuts: 386    29264     --- 
      0     0      874.7487   428       65.0000     Cuts: 314    29632     --- 
      0     0      874.5155   428       65.0000     Cuts: 325    29920     --- 
      0     0      874.4489   428       65.0000     Cuts: 170    30071     --- 
Detecting symmetries...
      0     2      874.4489   481       65.0000      874.4487    30071     --- 
Elapsed time = 5.39 sec. (7041.75 ticks, tree = 0.01 MB, solutions = 2)
      2     4      864.0114   446       65.0000      874.2899    31712     --- 
      4     6      873.9059   449       65.0000      873.9045    33289     --- 
      8    10      863.5235   431       65.0000      873.5002    36343     --- 
     10    12      855.6490   435       65.0000      873.1363    38162     --- 
     14    16      861.6893   429       65.0000      872.7773    39171     --- 
     19    21      843.1389   401       65.0000      872.0969    41730     --- 
     25    27      845.5043   414       65.0000      872.0969    43765     --- 
     30    32      851.1142   420       65.0000      872.0969    45850     --- 
     35    37      849.0220   410       65.0000      872.0969    48330     --- 
     56    58      863.7257   441       65.0000      872.0969    54919     --- 
Elapsed time = 7.89 sec. (10797.12 ticks, tree = 0.28 MB, solutions = 2)
     76    74      817.9966   382       65.0000      872.0969    62266     --- 
    100    98      847.2641   401       65.0000      872.0969    66665     --- 
    136   134      783.9045   350       65.0000      872.0969    72627     --- 
    198   186      650.7016   247       65.0000      872.0969    78193     --- 
*   358   324      integral     0      370.0000      872.0969    82941  135.70%
    360   324      870.9310   450      370.0000      872.0785    83534  135.70%
    389   353      868.0996   437      370.0000      872.0785    89656  135.70%
    409   373      768.7974   343      370.0000      872.0785    95607  135.70%
    472   428      715.6990   278      370.0000      872.0785   101082  135.70%

Performing restart 1

Repeating presolve.
Tried aggregator 1 time.
MIP Presolve modified 2978 coefficients.
Reduced MIP has 2333 rows, 3007 columns, and 10849 nonzeros.
Reduced MIP has 2566 binaries, 373 generals, 0 SOSs, and 0 indicators.
Presolve time = 0.01 sec. (9.19 ticks)
Tried aggregator 1 time.
Reduced MIP has 2333 rows, 3007 columns, and 10849 nonzeros.
Reduced MIP has 2566 binaries, 373 generals, 0 SOSs, and 0 indicators.
Presolve time = 0.01 sec. (7.68 ticks)
Represolve time = 0.09 sec. (54.49 ticks)
    499     0      826.0592   499      370.0000     Cuts: 505   110880  123.26%
    499     0      810.4543   499      370.0000     Cuts: 435   112208  119.04%
    499     0      796.6481   499      370.0000     Cuts: 455   113561  115.31%
    499     0      787.7443   499      370.0000     Cuts: 363   114622  112.90%
    499     0      782.1464   499      370.0000     Cuts: 344   115647  111.39%
    499     0      777.7541   499      370.0000     Cuts: 254   116629  110.20%
*   499+    0                          375.0000      777.7541           107.40%
    499     0        cutoff            375.0000      777.7541   116629  107.40%
    499     0      775.5516   499      375.0000     Cuts: 256   117174  106.81%
    499     0      772.8185   499      375.0000     Cuts: 235   117970  106.08%
    499     0      771.4392   499      375.0000     Cuts: 241   118755  105.72%
    499     0      769.3675   499      375.0000     Cuts: 252   119676  105.16%
    499     0      768.5051   499      375.0000     Cuts: 184   120466  104.93%
    499     0      767.8696   499      375.0000     Cuts: 223   120979  104.77%
    499     0      767.2905   499      375.0000     Cuts: 198   121546  104.61%
    499     0      766.9316   499      375.0000     Cuts: 139   121924  104.52%
    499     0      766.4902   499      375.0000     Cuts: 160   122249  104.40%
    499     0      766.1902   499      375.0000     Cuts: 111   122541  104.32%
    499     0      765.8286   499      375.0000     Cuts: 139   122768  104.22%
    499     0      765.2916   499      375.0000     Cuts: 146   123122  104.08%
    499     0      765.0844   499      375.0000     Cuts: 103   123393  104.02%
    499     0      764.9323   499      375.0000     Cuts: 142   123696  103.98%
    499     0      764.7776   499      375.0000      Cuts: 95   124025  103.94%
    499     0      764.5840   499      375.0000     Cuts: 126   124311  103.89%
    499     0      764.4243   499      375.0000     Cuts: 126   124647  103.85%
    499     0      764.3952   499      375.0000     Cuts: 121   124861  103.84%
    499     0      764.2544   499      375.0000      Cuts: 79   125223  103.80%
    499     0      764.1972   499      375.0000     Cuts: 181   125437  103.79%
    499     0      764.1503   499      375.0000     Cuts: 118   125654  103.77%
    499     0      764.0780   499      375.0000     Cuts: 139   125844  103.75%
    499     2      764.0780   550      375.0000      764.0715   125844  103.75%
    502     5      763.5370   531      375.0000      763.8839   126873  103.70%
Elapsed time = 34.52 sec. (45520.92 ticks, tree = 0.01 MB, solutions = 4)
    504     7      752.9305   464      375.0000      763.8839   129578  103.70%
    506     9      761.4576   513      375.0000      763.8839   133204  103.70%
    508    11      760.4891   500      375.0000      763.8839   134646  103.70%
    509    12      759.3159   495      375.0000      763.8839   135496  103.70%
    514    17      749.0530   445      375.0000      763.8839   139130  103.70%
    518    21      736.8737   408      375.0000      763.8839   143170  103.70%
    521    24      755.1819   460      375.0000      763.8839   147698  103.70%
    524    27      749.2664   447      375.0000      763.8839   153267  103.70%
    529    32      753.6339   452      375.0000      763.8839   155810  103.70%
    535    38      738.2450   391      375.0000      763.8839   159217  103.70%
Elapsed time = 42.22 sec. (57114.94 ticks, tree = 0.26 MB, solutions = 4)
    540    43      749.6198   455      375.0000      763.8839   162817  103.70%
    545    48      728.5803   403      375.0000      763.8839   166489  103.70%
    555    58      729.9143   361      375.0000      763.8839   168883  103.70%
    563    66      717.6071   359      375.0000      763.8839   170511  103.70%
    573    76      713.7079   357      375.0000      763.8839   172963  103.70%
    589    90      709.1068   352      375.0000      763.8839   176576  103.70%
    610   110      634.9626   260      375.0000      763.8839   181170  103.70%
    647   145      606.4322   251      375.0000      763.8839   185715  103.70%
    695   184      598.4691   252      375.0000      763.8839   190648  103.70%
    718   195      756.7667   483      375.0000      761.0829   194054  102.96%
Elapsed time = 49.33 sec. (67523.72 ticks, tree = 4.01 MB, solutions = 4)
    727   204      731.9922   406      375.0000      761.0829   197463  102.96%
    736   213      722.4508   420      375.0000      761.0829   201550  102.96%
    750   227      732.8445   412      375.0000      761.0829   206006  102.96%
    763   240      728.2099   421      375.0000      761.0829   209269  102.96%
    779   256      721.6011   396      375.0000      761.0829   212748  102.96%
    793   270      692.1335   359      375.0000      761.0829   217149  102.96%
    807   284      713.8832   373      375.0000      761.0829   220548  102.96%
    824   301      703.5673   340      375.0000      761.0829   224200  102.96%
    840   317      689.3169   334      375.0000      761.0829   227687  102.96%
    859   336      708.5097   338      375.0000      761.0829   231480  102.96%
Elapsed time = 57.21 sec. (78543.06 ticks, tree = 7.35 MB, solutions = 4)
    880   355      701.4683   335      375.0000      761.0829   236015  102.96%
    900   375      694.4713   297      375.0000      761.0829   240948  102.96%
    932   407      688.0073   279      375.0000      761.0829   245679  102.96%
    967   442      683.3726   306      375.0000      761.0829   251239  102.96%
    990   463      679.6918   294      375.0000      761.0829   257104  102.96%
   1018   478      755.7485   477      375.0000      758.9442   262639  102.39%
   1029   489      748.9687   437      375.0000      758.9442   264856  102.39%
   1051   511      730.3816   403      375.0000      758.9442   268118  102.39%
   1086   546      713.0100   382      375.0000      758.9442   272184  102.39%
   1101   560      754.6902   457      375.0000      756.7664   274967  101.80%
Elapsed time = 65.01 sec. (89093.40 ticks, tree = 10.99 MB, solutions = 4)
   1112   571      742.4760   428      375.0000      756.7664   278406  101.80%
   1136   595      730.3597   400      375.0000      756.7664   281986  101.80%
   1142   601      722.5796   394      375.0000      756.7664   282926  101.80%
   1163   622      713.8540   391      375.0000      756.7664   286801  101.80%
   1186   645      665.7686   303      375.0000      756.7664   290654  101.80%
   1259   713      580.2701   188      375.0000      756.7664   295210  101.80%
   1274   723      716.9179   417      375.0000      756.7402   299675  101.80%
   1286   735      718.4787   415      375.0000      756.7402   303362  101.80%
   1298   747      674.9118   347      375.0000      756.7402   307628  101.80%
   1313   760      646.9452   318      375.0000      756.7402   310600  101.80%
Elapsed time = 72.40 sec. (99128.90 ticks, tree = 12.33 MB, solutions = 4)
   1338   785      609.2169   225      375.0000      756.7402   315398  101.80%
   1380   817        cutoff            375.0000      756.7402   320915  101.80%
   1390   817      752.2310   493      375.0000      756.4847   323679  101.73%
   1408   835      739.4331   421      375.0000      756.4847   326816  101.73%
   1434   860      693.1228   372      375.0000      756.4847   330265  101.73%
   1456   882      651.7639   307      375.0000      756.4847   333598  101.73%
   1488   912      592.5067   208      375.0000      756.4847   337916  101.73%
   1502   922      754.0766   484      375.0000      755.7390   340507  101.53%
   1524   944      740.6297   426      375.0000      755.7390   343939  101.53%
   1542   962      722.1485   364      375.0000      755.7390   347420  101.53%
Elapsed time = 79.66 sec. (109236.74 ticks, tree = 14.89 MB, solutions = 4)
   1570   990      668.2175   290      375.0000      755.7390   351891  101.53%
   1587  1001      726.7119   433      375.0000      755.1004   356501  101.36%
   1608  1021      645.8419   329      375.0000      755.1004   360602  101.36%
   1630  1039      608.8764   292      375.0000      755.1004   365505  101.36%
   1661  1064      753.4763   499      375.0000      755.0994   369695  101.36%
   1683  1086      743.5920   421      375.0000      755.0994   373421  101.36%
   1705  1108      716.0933   386      375.0000      755.0994   377468  101.36%
   1741  1144      700.5178   357      375.0000      755.0994   381797  101.36%
   1755  1158      657.8364   333      375.0000      755.0994   385812  101.36%
   1760  1161      649.3578   337      375.0000      755.0994   390396  101.36%
Elapsed time = 87.04 sec. (119476.25 ticks, tree = 19.85 MB, solutions = 4)
   1787  1178    infeasible            375.0000      755.0994   395087  101.36%
   1809  1194      749.5931   473      375.0000      755.0885   397060  101.36%
   1813  1198      726.4862   424      375.0000      755.0885   400871  101.36%
   1824  1208      692.1712   391      375.0000      755.0885   404486  101.36%
   1841  1225      654.4490   342      375.0000      755.0885   408363  101.36%
   1859  1243      632.0614   289      375.0000      755.0885   412072  101.36%
   1899  1277      740.8195   486      375.0000      754.6889   417513  101.25%
   1918  1296      729.6004   440      375.0000      754.6889   420759  101.25%
   1949  1327      710.7559   405      375.0000      754.6889   424493  101.25%
   2057  1423      648.8719   340      375.0000      754.4105   439543  101.18%
Elapsed time = 97.07 sec. (133350.60 ticks, tree = 25.92 MB, solutions = 4)
   2135  1497      643.7218   344      375.0000      754.3919   452736  101.17%
   2239  1594      625.4814   270      375.0000      754.3186   467899  101.15%
   2356  1689      692.4203   365      375.0000      754.3017   483238  101.15%
   2487  1808      737.3921   459      375.0000      754.0766   501287  101.09%
   2564  1876      687.2782   375      375.0000      754.0756   516024  101.09%
   2701  1996      644.9528   358      375.0000      754.0126   532936  101.07%
   2913  2201      739.1020   456      375.0000      754.0078   547831  101.07%
   3043  2324      708.5269   393      375.0000      753.9891   565598  101.06%
   3130  2402      698.4497   354      375.0000      753.9854   585138  101.06%
   3209  2469      668.8335   323      375.0000      753.7292   601410  100.99%
Elapsed time = 125.03 sec. (172529.55 ticks, tree = 47.96 MB, solutions = 4)
   3277  2529      728.7677   435      375.0000      753.7093   614709  100.99%
   3351  2595      710.3393   393      375.0000      753.7043   628663  100.99%
   3478  2705      654.4977   330      375.0000      753.6968   645229  100.99%
*  3499+ 2722                          380.0000      753.6968            98.34%
   3560  2766      745.8450   478      380.0000      753.5631   659227   98.31%
Starting limited solution polishing.
   3659  2858      750.1087   500      380.0000      753.5430   674056   98.30%
*  3699+ 2887                          410.0000      753.5430            83.79%
   3699  2889      713.5883   422      410.0000      753.5430   682464   83.79%
   3770  2946      737.1339   469      410.0000      753.4762   701120   83.77%
   3804  2980      600.6159   288      410.0000      753.4762   707653   83.77%
*  3899+ 3052                          420.0000      753.4752            79.40%
*  3899+ 3045                          430.0000      753.4752            75.23%
   3903  3051      646.7226   332      430.0000      753.4752   721082   75.23%

GUB cover cuts applied:  46
Clique cuts applied:  243
Cover cuts applied:  21
Implied bound cuts applied:  122
Flow cuts applied:  22
Mixed integer rounding cuts applied:  171
Zero-half cuts applied:  135
Lift and project cuts applied:  51
Gomory fractional cuts applied:  10

Root node processing (before b&c):
  Real time             =    5.38 sec. (7030.50 ticks)
Sequential b&c:
  Real time             =  144.62 sec. (201725.63 ticks)
                          ------------
Total (root+branch&cut) =  150.00 sec. (208756.13 ticks)

Solution pool: 9 solutions saved.

MIP - Time limit exceeded, integer feasible:  Objective =  4.3000000000e+02
Current MIP best bound =  7.5347517402e+02 (gap = 323.475, 75.23%)
Solution time =  150.00 sec.  Iterations = 723346  Nodes = 3919 (3066)
Deterministic time = 208756.15 ticks  (1391.70 ticks/sec)


Incumbent solution
Variable Name           Solution Value
F                           430.000000
y157                          1.000000
y61                           1.000000
y83                           1.000000
y89                           1.000000
y192                          1.000000
y190                          1.000000
y65                           1.000000
y41                           1.000000
y52                           1.000000
y206                          1.000000
y128                          1.000000
y80                           1.000000
y169                          1.000000
y96                           1.000000
y199                          1.000000
y168                          1.000000
y114                          1.000000
y161                          1.000000
y50                           1.000000
y176                          1.000000
y29                           1.000000
y91                           1.000000
y100                          1.000000
y152                          1.000000
y120                          1.000000
y86                           1.000000
y147                          1.000000
x187x199x1                    2.000000
x156x83x1                     2.000000
x35x192x1                     1.000000
x35x206x1                     1.000000
x60x52x1                      1.000000
x108x89x1                     1.000000
x4x65x2                       2.000000
x59x41x2                      1.000000
x20x128x2                     1.000000
x208x128x2                    1.000000
x64x206x2                     1.000000
x64x80x2                      1.000000
x160x41x2                     1.000000
x12x61x3                      1.000000
x60x114x3                     1.000000
x70x61x3                      1.000000
x59x157x3                     1.000000
x108x157x3                    1.000000
x20x89x3                      1.000000
x208x192x3                    1.000000
x160x52x3                     1.000000
x157x169x3                    2.000000
x61x80x3                      1.000000
x61x168x3                     1.000000
x83x190x1                     2.000000
x89x96x1                      1.000000
x89x96x3                      1.000000
x192x50x1                     1.000000
x192x50x3                     1.000000
x190x86x1                     2.000000
x65x168x2                     1.000000
x65x114x2                     1.000000
x41x29x2                      2.000000
x52x152x1                     1.000000
x52x152x3                     1.000000
x206x120x1                    1.000000
x206x161x2                    1.000000
x128x176x2                    1.000000
x128x147x2                    1.000000
x80x161x2                     1.000000
x80x176x3                     1.000000
x169x0x3                      2.000000
x96x147x1                     1.000000
x96x0x3                       1.000000
x199x91x1                     2.000000
x168x120x2                    1.000000
x168x100x3                    1.000000
x114x0x2                      1.000000
x114x176x3                   -0.000000
x114x124x3                    0.000000
x114x100x3                    1.000000
x110x176x3                    0.000000
x110x124x3                   -0.000000
x161x0x2                      2.000000
x50x0x1                       1.000000
x50x0x3                       1.000000
x176x0x2                      1.000000
x176x0x3                      1.000000
x29x0x2                       2.000000
x91x0x1                       2.000000
x100x0x3                      2.000000
x152x0x1                      1.000000
x152x0x3                      1.000000
x120x0x1                      1.000000
x120x0x2                      1.000000
x86x0x1                       2.000000
x147x0x1                      1.000000
x147x0x2                      1.000000
s12                           3.951950
s105                          6.275226
s184                          6.505948
s130                          5.680000
s157                          6.701001
s148                          5.810000
s74                           6.774952
s61                           6.183861
z12z61z3                      1.000000
s145                          7.290000
z12z145z3                     1.000000
s89                           6.986587
s136                          7.400000
z12z136z3                     1.000000
s192                          7.390142
s200                          6.570000
s52                           7.630000
s146                          6.810000
s21                           6.850000
s43                           6.990000
s42                           8.000000
z12z42z3                      1.000000
s48                           8.120000
s80                           7.592542
s169                          8.132072
z12z169z3                     1.000000
s96                           8.308344
s179                          8.480000
s195                          7.490000
z12z195z3                     1.000000
s168                          8.030874
s26                           8.580000
s114                          8.039747
s110                          8.640000
s154                          8.710000
z12z154z3                     1.000000
s158                          8.710000
s111                          8.850000
s50                           8.900000
s112                          8.950000
s9                            8.010000
s119                          8.030000
z12z119z3                     1.000000
s176                          9.030000
s124                          8.170000
z12z124z3                     1.000000
s109                          9.220000
z12z109z3                     1.000000
s100                          9.183660
z12z100z3                     1.000000
s152                          9.250000
s104                          9.290000
s90                           9.320000
z12z90z3                      1.000000
s63                           9.330000
s7                            9.340000
s187                          4.431970
s78                           5.950000
s83                           6.435962
s190                          7.460000
s183                          7.700000
z187z183z1                    1.000000
s206                          7.296783
s37                           7.900000
s125                          8.030000
z187z125z1                    1.000000
s118                          7.140000
z187z118z1                    1.000000
s188                          7.150000
s54                           7.200000
z187z54z1                     1.000000
s55                           8.200000
z187z55z1                     1.000000
s97                           8.240000
z187z97z1                     1.000000
s199                          7.500000
z187z199z1                    1.000000
s56                           8.690000
z187z56z1                     1.000000
s191                          7.860000
z187z191z1                    1.000000
s122                          8.950000
z187z122z1                    1.000000
s93                           9.010000
s132                          8.050000
z187z132z1                    1.000000
s98                           9.090000
z187z98z1                     1.000000
s23                           9.140000
z187z23z1                     1.000000
s91                           9.240000
z187z91z1                     1.000000
s115                          8.271143
s106                          9.280000
s120                          9.310000
s86                           9.360000
z187z86z1                     1.000000
s147                          9.430000
s4                            4.500240
s65                           6.490000
z4z65z2                       1.000000
s41                           7.412005
z4z41z2                       1.000000
s128                          7.449183
z4z128z2                      1.000000
s163                          7.530000
z4z163z2                      1.000000
s161                          8.779031
z4z161z2                      1.000000
s198                          8.930000
z4z198z2                      1.000000
s71                           8.980000
z4z71z2                       1.000000
s45                           9.030000
z4z45z2                       1.000000
s29                           9.170000
z4z29z2                       1.000000
s127                          9.210000
z4z127z2                      1.000000
s171                          9.220000
z4z171z2                      1.000000
s94                           9.330000
z4z94z2                       1.000000
s156                          4.810800
z156z83z1                     1.000000
z156z190z1                    1.000000
z156z183z1                    1.000000
z156z125z1                    1.000000
z156z118z1                    1.000000
z156z54z1                     1.000000
z156z55z1                     1.000000
z156z97z1                     1.000000
z156z199z1                    1.000000
z156z56z1                     1.000000
z156z191z1                    1.000000
z156z122z1                    1.000000
z156z132z1                    1.000000
z156z98z1                     1.000000
z156z23z1                     1.000000
z156z91z1                     1.000000
z156z86z1                     1.000000
s35                           5.269560
z35z192z1                     1.000000
z35z206z1                     1.000000
z35z199z1                     1.000000
z35z56z1                      1.000000
z35z191z1                     1.000000
z35z122z1                     1.000000
z35z132z1                     1.000000
z35z98z1                      1.000000
z35z23z1                      1.000000
z35z91z1                      1.000000
z35z86z1                      1.000000
s60                           5.192620
z60z52z1                      1.000000
z60z169z3                     1.000000
z60z55z1                      1.000000
z60z195z3                     1.000000
z60z199z1                     1.000000
z60z114z3                     1.000000
z60z56z1                      1.000000
z60z154z3                     1.000000
z60z191z1                     1.000000
z60z122z1                     1.000000
z60z119z3                     1.000000
z60z132z1                     1.000000
z60z98z1                      1.000000
z60z23z1                      1.000000
z60z124z3                     1.000000
z60z109z3                     1.000000
z60z91z1                      1.000000
z60z100z3                     1.000000
z60z90z3                      1.000000
z60z86z1                      1.000000
s70                           4.609780
z70z61z3                      1.000000
z70z136z3                     1.000000
z70z42z3                      1.000000
z70z169z3                     1.000000
z70z195z3                     1.000000
z70z154z3                     1.000000
z70z119z3                     1.000000
z70z124z3                     1.000000
z70z109z3                     1.000000
z70z100z3                     1.000000
z70z90z3                      1.000000
s59                           5.352520
z59z157z3                     1.000000
z59z41z2                      1.000000
z59z42z3                      1.000000
z59z169z3                     1.000000
z59z195z3                     1.000000
z59z163z2                     1.000000
z59z154z3                     1.000000
z59z161z2                     1.000000
z59z198z2                     1.000000
z59z71z2                      1.000000
z59z45z2                      1.000000
z59z119z3                     1.000000
z59z29z2                      1.000000
z59z124z3                     1.000000
z59z127z2                     1.000000
z59z109z3                     1.000000
z59z171z2                     1.000000
z59z100z3                     1.000000
z59z90z3                      1.000000
z59z94z2                      1.000000
s108                          5.345450
z108z157z3                    1.000000
z108z89z1                     1.000000
z108z42z3                     1.000000
z108z118z1                    1.000000
z108z169z3                    1.000000
z108z54z1                     1.000000
z108z55z1                     1.000000
z108z97z1                     1.000000
z108z195z3                    1.000000
z108z199z1                    1.000000
z108z56z1                     1.000000
z108z154z3                    1.000000
z108z191z1                    1.000000
z108z122z1                    1.000000
z108z119z3                    1.000000
z108z132z1                    1.000000
z108z98z1                     1.000000
z108z23z1                     1.000000
z108z124z3                    1.000000
z108z109z3                    1.000000
z108z91z1                     1.000000
z108z100z3                    1.000000
z108z90z3                     1.000000
z108z86z1                     1.000000
s20                           5.441980
z20z89z3                      1.000000
z20z42z3                      1.000000
z20z128z2                     1.000000
z20z195z3                     1.000000
z20z163z2                     1.000000
z20z154z3                     1.000000
z20z161z2                     1.000000
z20z198z2                     1.000000
z20z71z2                      1.000000
z20z45z2                      1.000000
z20z119z3                     1.000000
z20z29z2                      1.000000
z20z124z3                     1.000000
z20z127z2                     1.000000
z20z109z3                     1.000000
z20z171z2                     1.000000
z20z100z3                     1.000000
z20z90z3                      1.000000
z20z94z2                      1.000000
s208                          5.497040
z208z192z3                    1.000000
z208z128z2                    1.000000
z208z154z3                    1.000000
z208z161z2                    1.000000
z208z198z2                    1.000000
z208z71z2                     1.000000
z208z45z2                     1.000000
z208z119z3                    1.000000
z208z29z2                     1.000000
z208z124z3                    1.000000
z208z127z2                    1.000000
z208z109z3                    1.000000
z208z171z2                    1.000000
z208z100z3                    1.000000
z208z90z3                     1.000000
z208z94z2                     1.000000
s64                           5.742610
z64z206z2                     1.000000
z64z80z2                      1.000000
z64z161z2                     1.000000
z64z198z2                     1.000000
z64z71z2                      1.000000
z64z45z2                      1.000000
z64z29z2                      1.000000
z64z127z2                     1.000000
z64z171z2                     1.000000
z64z94z2                      1.000000
s160                          5.665340
z160z41z2                     1.000000
z160z52z3                     1.000000
z160z154z3                    1.000000
z160z161z2                    1.000000
z160z198z2                    1.000000
z160z71z2                     1.000000
z160z45z2                     1.000000
z160z119z3                    1.000000
z160z29z2                     1.000000
z160z124z3                    1.000000
z160z127z2                    1.000000
z160z109z3                    1.000000
z160z171z2                    1.000000
z160z100z3                    1.000000
z160z90z3                     1.000000
z160z94z2                     1.000000
z105z45z2                     1.000000
z105z127z2                    1.000000
z105z109z3                    1.000000
z105z90z3                     1.000000
z105z94z2                     1.000000
z184z98z1                     1.000000
z184z109z3                    1.000000
z184z86z1                     1.000000
z130z98z1                     1.000000
z130z109z3                    1.000000
z130z86z1                     1.000000
z157z169z3                    1.000000
z157z109z3                    1.000000
z148z109z3                    1.000000
z74z98z1                      1.000000
z74z109z3                     1.000000
z74z86z1                      1.000000
z78z98z1                      1.000000
z78z86z1                      1.000000
z61z80z3                      1.000000
z61z168z3                     1.000000
z61z109z3                     1.000000
z145z109z3                    1.000000
z83z190z1                     1.000000
z83z98z1                      1.000000
z83z86z1                      1.000000
z89z96z1                      1.000000
z89z96z3                      1.000000
z89z98z1                      1.000000
z89z109z3                     1.000000
z89z86z1                      1.000000
z136z109z3                    1.000000
z192z50z1                     1.000000
z192z50z3                     1.000000
z192z98z1                     1.000000
z192z109z3                    1.000000
z192z86z1                     1.000000
z190z98z1                     1.000000
z190z86z1                     1.000000
z65z168z2                     1.000000
z65z114z2                     1.000000
z65z127z2                     1.000000
z65z94z2                      1.000000
z41z29z2                      1.000000
z41z127z2                     1.000000
z200z98z1                     1.000000
z200z109z3                    1.000000
z200z86z1                     1.000000
z52z98z1                      1.000000
z52z109z3                     1.000000
z52z152z1                     1.000000
z52z152z3                     1.000000
z52z86z1                      1.000000
z206z161z2                    1.000000
z206z120z1                    1.000000
z146z127z2                    1.000000
z146z109z3                    1.000000
z21z127z2                     1.000000
z21z109z3                     1.000000
z37z127z2                     1.000000
z125z86z1                     1.000000
z128z161z2                    1.000000
z128z176z2                    1.000000
z128z147z2                    1.000000
z80z161z2                     1.000000
z80z176z3                     1.000000
z54z86z1                      1.000000
z96z147z1                     1.000000
z199z91z1                     1.000000
z199z86z1                     1.000000
z168z100z3                    1.000000
z168z120z2                    1.000000
z114z176z3                   -0.000000
z114z124z3                    0.000000
z114z100z3                    1.000000
z110z176z3                    0.000000
z110z124z3                   -0.000000
All other variables in the range 1-5426 are 0.
